#######################################
### Exact MIP solver for the HHCRSP ###
#######################################
-- Instance file: new-instances/HHCRSP_300_60_48_1.2_R_RC.txt
-- Max threads: 4
-- Time limit: 999999 seconds
-- Use initial solution: No
Trivial flow violations prevented generating 1187891 variables.
Version identifier: 20.1.0.0 | 2020-11-10 | 9bedb6d68
CPXPARAM_Threads                                 4
CPXPARAM_TimeLimit                               999999
Parallel mode: deterministic, using up to 4 threads for concurrent optimization:
 * Starting dual Simplex on 1 thread...
 * Starting Barrier on 3 threads...
Tried aggregator 1 time.
LP Presolve eliminated 48822 rows and 11525 columns.
Reduced LP has 1366180 rows, 1295732 columns, and 32000701 nonzeros.
Presolve time = 38.62 sec. (6983.27 ticks)
Symmetry aggregator did 2244795 additional substitutions.

Iteration log . . .
Iteration:     1   Dual objective     =             0.000000

Dual crossover.
  Dual:  Fixing 1517 variables.
     1516 DMoves:  Infeasibility  9.42301802e-13  Objective  3.77333333e+02
        0 DMoves:  Infeasibility  5.29021281e-13  Objective  3.77333333e+02
  Dual:  Pushed 24, exchanged 1493.
  Primal:  Fixing 1491 variables.
     1490 PMoves:  Infeasibility  1.11022302e-16  Objective  3.77333333e+02
        0 PMoves:  Infeasibility  1.55431223e-15  Objective  3.77333333e+02
  Primal:  Pushed 1337, exchanged 154.

Dual simplex solved model.


Solution status from MIP model:
-- Processing time: 61.622 sec.
-- Memory used: 1214.77 MB
-- Best bound: inf
-- Obj value: 377.333
-- Gap: inf%
-- Total distance: 1132
-- Total tardiness: 0
-- Largest tardiness: 0
